NAME : random_10
COMMENT : 44 random nodes
TYPE : TSP
DIMENSION : 44
EDGE_WEIGHT_TYPE : EUC_2D
NODE_COORD_SECTION
1 -2473 2152
2 1392 -3282
3 6728 2631
4 -1432 5350
5 2776 -3968
6 2189 2614
7 5979 -1937
8 -4617 249
9 2623 -1949
10 -5236 -2159
11 346 -5786
12 2411 -3292
13 -3613 -2159
14 925 6556
15 1182 -4789
16 3495 -261
17 6365 -151
18 6806 1513
19 6428 152
20 5480 5310
21 -790 -3963
22 1630 -4934
23 3149 2019
24 2172 -2482
25 -6165 -436
26 3163 115
27 3484 -125
28 -5581 3063
29 2471 1511
30 3381 6728
31 -3574 -721
32 4583 1398
33 3896 -4176
34 944 -7
35 -2117 130
36 4234 2894
37 -6118 -529
38 3090 4020
39 -1541 -1185
40 -461 6399
41 1598 -2104
42 1710 3270
43 -4951 966
44 4002 6430
EOF